db/data/196012886829544207402413219340398221770.z3.out
sat
-------------------
65.984336327
